
******************************************************************************
This program contains Ipopt, a library for large-scale nonlinear optimization.
 Ipopt is released as open source code under the Eclipse Public License (EPL).
         For more information visit http://projects.coin-or.org/Ipopt

This version of Ipopt was compiled from source code available at
    https://github.com/IDAES/Ipopt as part of the Institute for the Design of
    Advanced Energy Systems Process Systems Engineering Framework (IDAES PSE
    Framework) Copyright (c) 2018-2019. See https://github.com/IDAES/idaes-pse.

This version of Ipopt was compiled using HSL, a collection of Fortran codes
    for large-scale scientific computation.  All technical papers, sales and
    publicity material resulting from use of the HSL codes within IPOPT must
    contain the following acknowledgement:
        HSL, a collection of Fortran codes for large-scale scientific
        computation. See http://www.hsl.rl.ac.uk.
******************************************************************************

This is Ipopt version 3.13.2, running with linear solver ma27.

Number of nonzeros in equality constraint Jacobian...:      914
Number of nonzeros in inequality constraint Jacobian.:        0
Number of nonzeros in Lagrangian Hessian.............:      918

Total number of variables............................:      378
                     variables with only lower bounds:      108
                variables with lower and upper bounds:      216
                     variables with only upper bounds:        0
Total number of equality constraints.................:      376
Total number of inequality constraints...............:        0
        inequality constraints with only lower bounds:        0
   inequality constraints with lower and upper bounds:        0
        inequality constraints with only upper bounds:        0

iter    objective    inf_pr   inf_du lg(mu)  ||d||  lg(rg) alpha_du alpha_pr  ls
   0  0.0000000e+00 1.51e+00 1.53e-14  -1.0 0.00e+00    -  0.00e+00 0.00e+00   0
   1  2.6128576e+00 1.34e+00 2.48e+05  -1.0 4.10e+06    -  2.56e-02 2.39e-02h  1
   2  2.6674536e+00 1.34e+00 2.47e+05  -1.0 6.23e+06    -  2.86e-02 2.19e-04h  1
   3  2.8057264e+00 1.34e+00 2.48e+05  -1.0 8.13e+06    -  7.15e-04 6.08e-04h  1
   4  3.3303271e+00 1.34e+00 2.49e+05  -1.0 8.18e+06    -  1.29e-03 2.01e-03h  1
   5  3.3365498e+00 1.34e+00 2.49e+05  -1.0 7.62e+06    -  1.74e-04 2.00e-05h  1
   6  3.3405746e+00 1.34e+00 2.49e+05  -1.0 8.58e+07    -  1.89e-08 2.20e-06f  1
   7  4.2524067e+00 1.33e+00 2.53e+05  -1.0 1.49e+07    -  8.16e-07 2.54e-03h  1
   8  4.2834455e+00 1.33e+00 2.53e+05  -1.0 1.47e+07    -  3.33e-03 7.14e-05h  1
   9  4.2840642e+00 1.33e+00 2.53e+05  -1.0 2.03e+08    -  1.07e-06 1.67e-07f  4
iter    objective    inf_pr   inf_du lg(mu)  ||d||  lg(rg) alpha_du alpha_pr  ls
  10  4.2927270e+00 1.33e+00 2.53e+05  -1.0 2.79e+08    -  7.77e-09 1.74e-06f  1
  11  4.3414055e+00 1.33e+00 2.55e+05  -1.0 2.96e+07    -  3.34e-09 7.35e-05f  1
  12  2.4108634e+01 1.22e+00 2.77e+06  -1.0 3.35e+07    -  7.73e-05 1.31e-02h  2
  13  3.6198412e+01 1.21e+00 3.10e+06  -1.0 2.71e+07    -  1.31e-02 4.11e-03h  1
  14  3.7620067e+01 1.21e+00 3.11e+06  -1.0 2.43e+07    -  1.63e-02 4.28e-04h  6
  15  3.7804172e+01 1.21e+00 3.11e+06  -1.0 2.27e+07    -  1.75e-02 5.54e-05h  9
  16  3.7913685e+01 1.21e+00 3.11e+06  -1.0 2.25e+07    -  2.12e-02 3.44e-05h 10
  17  3.8034850e+01 1.21e+00 3.11e+06  -1.0 2.83e+07    -  3.03e-02 4.02e-05h 10
  18  3.8242757e+01 1.21e+00 3.11e+06  -1.0 3.39e+07    -  3.40e-02 7.04e-05h  9
  19  9.5669382e+01 1.19e+00 5.54e+07  -1.0 3.62e+07    -  3.99e-02 8.50e-03h  2
iter    objective    inf_pr   inf_du lg(mu)  ||d||  lg(rg) alpha_du alpha_pr  ls
  20  9.6754594e+01 1.19e+00 5.55e+07  -1.0 1.54e+07    -  2.14e-02 3.03e-04h  7
  21  9.6980611e+01 1.19e+00 5.56e+07  -1.0 1.48e+07    -  1.73e-02 7.56e-05h  9
  22  9.7813614e+01 1.19e+00 5.56e+07  -1.0 2.43e+07    -  4.98e-02 1.27e-04h  8
  23  9.9494925e+01 1.19e+00 1.84e+08  -1.0 2.74e+07    -  6.33e-02 2.35e-04h  7
  24  2.5769604e+02 3.66e+00 1.09e+10  -1.0 2.95e+07    -  8.50e-02 1.42e-02w  1
  25  3.1532928e+02 4.34e+00 1.06e+10  -1.0 2.73e+07    -  2.35e-02 6.64e-03w  1
  26  3.1592174e+02 4.28e+00 1.06e+10  -1.0 3.27e+07  -2.0 6.88e-03 1.49e-04w  1
  27  1.6574934e+02 1.18e+00 2.77e+09  -1.0 3.16e+07  -2.5 8.50e-02 7.08e-03h  1
  28  1.6615992e+02 1.18e+00 2.77e+09  -1.0 1.71e+07    -  5.96e-02 5.97e-05h  9
  29  1.6770190e+02 1.18e+00 3.88e+09  -1.0 2.39e+07    -  1.31e-01 1.90e-04h  7
iter    objective    inf_pr   inf_du lg(mu)  ||d||  lg(rg) alpha_du alpha_pr  ls
  30  2.2136721e+02 1.18e+00 8.43e+09  -1.0 2.47e+07    -  3.64e-02 5.84e-03h  2
  31  2.2256094e+02 1.18e+00 8.44e+09  -1.0 1.64e+07    -  1.16e-01 1.86e-04h  7
  32  2.3209311e+02 1.18e+00 8.74e+09  -1.0 2.02e+07    -  3.76e-02 1.24e-03h  4
  33  2.4105123e+02 1.17e+00 1.15e+10  -1.0 1.97e+07    -  2.39e-01 1.18e-03h  4
  34  2.4946053e+02 1.17e+00 1.19e+10  -1.0 1.90e+07    -  3.33e-02 1.13e-03h  4
  35  2.5337902e+02 1.17e+00 1.66e+10  -1.0 1.82e+07    -  3.25e-01 5.46e-04h  5
  36  2.5717491e+02 1.17e+00 1.69e+10  -1.0 1.79e+07    -  3.30e-02 5.36e-04h  5
  37  2.6085101e+02 1.17e+00 2.26e+10  -1.0 1.75e+07    -  5.91e-01 5.27e-04h  5
  38  3.2216493e+02 6.16e+00 2.47e+10  -1.0 1.72e+07    -  3.20e-02 8.28e-03w  1
  39  3.3479279e+02 9.51e+00 2.72e+10  -1.0 9.59e+06    -  8.51e-02 3.74e-03w  1
iter    objective    inf_pr   inf_du lg(mu)  ||d||  lg(rg) alpha_du alpha_pr  ls
  40  3.4820887e+02 1.76e+01 1.31e+13  -1.0 9.01e+06    -  3.26e-04 5.61e-03w  1
  41  2.6441017e+02 1.17e+00 2.27e+10  -1.0 6.61e+06   3.4 3.20e-02 5.17e-04h  4
  42  2.6785532e+02 1.17e+00 2.31e+10  -1.0 1.69e+07    -  8.83e-02 5.08e-04h  5
  43  2.7118936e+02 1.17e+00 2.33e+10  -1.0 1.65e+07    -  4.99e-02 4.99e-04h  5
  44  2.7441527e+02 1.17e+00 2.74e+10  -1.0 1.62e+07    -  9.88e-01 4.90e-04h  5
  45  2.7753597e+02 1.17e+00 2.74e+10  -1.0 1.59e+07    -  3.18e-02 4.82e-04h  5
  46  2.8055443e+02 1.17e+00 2.74e+10  -1.0 1.56e+07    -  1.39e-01 4.74e-04h  5
  47  2.8073647e+02 1.17e+00 2.86e+10  -1.0 1.53e+07    -  4.41e-02 2.91e-05h  9
  48r 2.8073647e+02 1.17e+00 1.00e+03   0.1 0.00e+00    -  0.00e+00 4.51e-07R 15
  49r 2.8073647e+02 3.35e+00 9.95e+02   0.1 2.67e+03    -  5.78e-03 3.98e-03f  1
iter    objective    inf_pr   inf_du lg(mu)  ||d||  lg(rg) alpha_du alpha_pr  ls
  50r 2.8073647e+02 3.33e+00 9.90e+02   0.1 1.20e+03    -  2.40e-02 4.55e-03f  1
  51r 2.8073647e+02 3.27e+00 9.72e+02   0.1 8.87e+01    -  8.32e-02 1.84e-02f  1
  52r 2.8073648e+02 3.08e+00 9.14e+02   0.1 1.34e+01    -  3.21e-02 5.96e-02f  1
  53r 2.8073648e+02 2.97e+00 8.84e+02   0.1 6.39e+01    -  5.07e-02 3.30e-02f  1
  54r 2.8073648e+02 2.76e+00 8.19e+02   0.1 9.32e+00    -  7.69e-02 7.32e-02f  1
  55r 2.8073648e+02 2.60e+00 7.74e+02   0.1 7.49e+00    -  6.35e-02 5.51e-02f  1
  56r 2.8073648e+02 2.20e+00 6.77e+02   0.1 9.32e+00    -  1.07e-01 1.57e-01f  1
  57r 2.8073647e+02 1.84e+00 6.57e+02   0.1 1.20e+01    -  9.04e-02 1.62e-01f  1
  58r 2.8073647e+02 1.62e+00 5.85e+02   0.1 1.79e+01    -  3.16e-01 1.18e-01f  1
  59r 2.8073646e+02 1.29e+00 4.67e+02   0.1 1.67e+01    -  2.68e-01 2.03e-01f  1
iter    objective    inf_pr   inf_du lg(mu)  ||d||  lg(rg) alpha_du alpha_pr  ls
  60r 2.8073646e+02 1.09e+00 1.33e+03   0.1 8.46e-01   4.0 8.96e-02 1.57e-01h  1
  61r 2.8073646e+02 9.03e-01 1.91e+03   0.1 5.74e-01   3.5 4.61e-02 1.00e+00h  1
  62r 2.8073646e+02 9.03e-01 9.99e+02  -0.0 0.00e+00    -  0.00e+00 4.16e-07R  3
  63r 2.8073648e+02 8.68e-01 9.95e+02  -0.0 7.70e+02    -  1.12e-02 3.87e-03f  1
  64r 2.8073661e+02 6.51e-01 9.71e+02  -0.0 7.30e+02    -  2.40e-02 2.40e-02f  1
  65r 2.8073661e+02 6.51e-01 9.99e+02  -0.2 0.00e+00    -  0.00e+00 2.85e-07R  5
  66r 2.8073654e+02 6.23e-01 9.96e+02  -0.2 3.38e+03    -  1.64e-02 2.65e-03f  1
  67r 2.8073642e+02 6.47e-01 9.90e+02  -0.2 1.95e+03    -  8.23e-03 6.77e-03f  1
  68r 2.8073647e+02 6.54e-01 9.88e+02  -0.2 5.55e+02    -  5.06e-02 2.74e-03f  1
  69r 2.8073708e+02 6.60e-01 9.64e+02  -0.2 4.51e+02    -  6.50e-03 2.45e-02f  1
iter    objective    inf_pr   inf_du lg(mu)  ||d||  lg(rg) alpha_du alpha_pr  ls
  70r 2.8073723e+02 6.52e-01 9.63e+02  -0.2 4.13e+03    -  9.62e-03 8.44e-04f  1
  71r 2.8073810e+02 6.54e-01 9.41e+02  -0.2 5.37e+02    -  5.93e-02 2.22e-02f  1
  72r 2.8073894e+02 6.47e-01 9.30e+02  -0.2 5.39e+02    -  1.40e-02 3.97e-02f  1
  73r 2.8073894e+02 6.47e-01 9.29e+02  -0.2 1.14e+01   0.0 1.29e-02 1.90e-02f  1
  74r 2.8073894e+02 6.47e-01 8.74e+02  -0.2 1.31e+01  -0.5 4.31e-02 1.67e-02f  1
  75r 2.8073894e+02 6.47e-01 8.55e+02  -0.2 2.98e+01  -1.0 7.17e-02 2.16e-02f  1
  76r 2.8073895e+02 6.46e-01 8.69e+02  -0.2 7.72e+01  -1.4 2.62e-03 9.59e-02f  1
  77r 2.8073895e+02 6.42e-01 8.56e+02  -0.2 1.38e+02  -1.0 1.60e-02 1.68e-02f  1
  78r 2.8073895e+02 6.42e-01 8.32e+02  -0.2 1.94e+01  -0.6 1.61e-02 7.30e-03f  1
  79r 2.8073895e+02 6.34e-01 8.29e+02  -0.2 8.78e+02  -1.1 5.44e-03 4.74e-03f  1
iter    objective    inf_pr   inf_du lg(mu)  ||d||  lg(rg) alpha_du alpha_pr  ls
  80r 2.8073895e+02 6.35e-01 9.21e+02  -0.2 1.34e+01  -0.6 7.38e-03 4.40e-02f  1
  81r 2.8073895e+02 6.31e-01 7.13e+02  -0.2 7.11e+01  -1.1 9.30e-02 2.80e-02f  1
  82r 2.8073895e+02 6.38e-01 7.00e+02  -0.2 1.52e+01  -0.7 4.57e-02 7.78e-02f  1
  83r 2.8073895e+02 6.36e-01 7.64e+02  -0.2 6.00e+00  -0.3 2.89e-01 7.83e-02h  1
  84r 2.8073895e+02 6.34e-01 7.56e+02  -0.2 5.56e+00   2.0 1.58e-03 5.01e-02f  1
  85r 2.8073895e+02 6.34e-01 7.19e+02  -0.2 7.92e-01   1.5 5.22e-02 1.28e-02h  1
  86r 2.8073895e+02 6.24e-01 9.10e+02  -0.2 8.47e-01   1.0 3.18e-02 2.80e-01h  1
  87r 2.8073895e+02 6.21e-01 5.25e+02  -0.2 1.83e+00   0.5 3.19e-01 1.16e-01h  1
  88r 2.8073895e+02 6.15e-01 9.23e+02  -0.2 6.62e-01   2.8 1.80e-02 8.78e-02h  1
  89r 2.8073895e+02 6.03e-01 3.03e+03  -0.2 2.27e-01   3.2 3.53e-02 2.92e-01h  1
iter    objective    inf_pr   inf_du lg(mu)  ||d||  lg(rg) alpha_du alpha_pr  ls
  90r 2.8073895e+02 6.01e-01 2.98e+03  -0.2 5.38e-01   2.7 2.43e-01 1.72e-02h  1
  91r 2.8073895e+02 5.81e-01 1.90e+03  -0.2 9.19e-02   3.2 2.55e-01 3.80e-01h  1
  92  2.7169638e+02 5.81e-01 2.43e+08  -1.0 3.04e+09    -  3.42e-06 4.83e-06H  1
  93  2.7996806e+02 5.81e-01 2.75e+08  -1.0 5.56e+09    -  7.42e-07 3.46e-05h  2
  94  2.7515329e+02 5.81e-01 3.14e+08  -1.0 3.98e+09    -  1.42e-06 7.97e-07H  1
  95  2.8234658e+02 5.81e-01 3.28e+08  -1.0 5.25e+09    -  2.90e-07 2.88e-05h  2
  96  2.7826332e+02 5.81e-01 3.56e+08  -1.0 3.79e+09    -  1.06e-06 5.88e-07H  1
  97  2.7835024e+02 5.81e-01 3.56e+08  -1.0 4.98e+09    -  2.37e-07 3.70e-07f  8
  98r 2.7835024e+02 5.81e-01 9.99e+02  -0.2 0.00e+00    -  0.00e+00 3.69e-07R  8
  99r 2.7835069e+02 5.69e-01 9.79e+02  -0.2 5.63e+02    -  4.35e-02 2.02e-02f  1
iter    objective    inf_pr   inf_du lg(mu)  ||d||  lg(rg) alpha_du alpha_pr  ls
 100r 2.7835113e+02 5.35e-01 9.55e+02  -0.2 5.71e+02    -  2.37e-02 2.46e-02f  1
 101r 2.7835113e+02 7.47e-01 9.53e+02  -0.2 1.75e+02   0.0 6.13e-04 3.03e-03f  1
 102r 2.7835118e+02 7.48e-01 9.48e+02  -0.2 4.21e+02    -  1.22e-01 4.27e-03f  1
 103r 2.7835189e+02 7.45e-01 8.97e+02  -0.2 4.17e+02    -  2.25e-01 5.32e-02f  1
 104r 2.7835326e+02 7.39e-01 8.07e+02  -0.2 4.15e+02    -  1.52e-02 1.02e-01f  1
 105r 2.7835509e+02 7.32e-01 6.89e+02  -0.2 3.84e+02    -  3.12e-01 1.45e-01f  1
 106r 2.7835509e+02 7.13e-01 4.19e+02  -0.2 4.16e+00  -0.5 3.56e-01 3.92e-01f  1
 107r 2.7836106e+02 6.73e-01 1.16e+03  -0.2 2.39e+02    -  6.11e-03 6.78e-01f  1
 108r 2.7836106e+02 6.63e-01 3.59e+02  -0.2 1.08e+01  -1.0 7.54e-01 5.07e-01f  1
 109r 2.7836004e+02 6.63e-01 3.17e+02  -0.2 3.05e+02    -  1.07e-01 6.98e-02f  1
iter    objective    inf_pr   inf_du lg(mu)  ||d||  lg(rg) alpha_du alpha_pr  ls
 110r 2.7836004e+02 6.60e-01 2.22e+02  -0.2 1.65e-01   2.2 2.97e-01 3.09e-01f  1
 111r 2.7836004e+02 6.54e-01 7.42e+00  -0.2 5.77e-02   1.7 9.83e-01 1.00e+00f  1
 112r 2.7836004e+02 6.53e-01 2.51e+00  -0.2 1.28e-01   1.2 9.90e-01 1.00e+00f  1
 113r 2.7836004e+02 6.51e-01 2.38e+00  -0.2 3.11e-01   0.7 9.91e-01 1.00e+00f  1
 114r 2.7836004e+02 6.52e-01 5.89e+01  -0.9 6.72e-01   0.3 7.49e-01 6.17e-01f  1
 115r 2.7836004e+02 6.53e-01 1.56e+02  -0.9 2.01e+00  -0.2 8.47e-01 6.08e-01f  1
 116r 2.7836087e+02 7.44e-01 4.25e+02  -0.9 5.74e+03    -  5.86e-02 6.94e-03f  1
 117r 2.7836087e+02 1.64e+00 6.46e+02  -0.9 5.84e+00  -0.7 8.26e-01 2.52e-01f  1
 118r 2.7836087e+02 1.64e+00 1.05e+03  -0.9 2.39e+02  -1.2 2.92e-02 1.64e-03f  1
 119r 2.7836087e+02 2.70e+00 1.19e+03  -0.9 1.73e+03  -1.6 2.03e-03 1.02e-03f  1
iter    objective    inf_pr   inf_du lg(mu)  ||d||  lg(rg) alpha_du alpha_pr  ls
 120r 2.7836087e+02 2.62e+00 1.14e+03  -0.9 2.12e+01  -2.1 7.52e-03 3.09e-02h  3
 121r 2.7836087e+02 2.47e+00 1.08e+03  -0.9 3.79e+00  -1.7 4.27e-02 5.63e-02h  1
 122r 2.7836087e+02 2.41e+00 1.04e+03  -0.9 1.42e+01  -2.2 2.65e-01 2.39e-02h  2
 123r 2.7836032e+02 2.32e+00 1.01e+03  -0.9 3.25e+02    -  1.21e-02 4.07e-02h  1
 124r 2.7836032e+02 2.24e+00 9.50e+02  -0.9 1.66e+01  -0.8 6.50e-02 3.26e-02h  1
 125r 2.7835775e+02 1.84e+00 7.87e+02  -0.9 9.05e+02    -  1.74e-01 1.78e-01h  1
 126r 2.7835500e+02 1.44e+00 9.21e+02  -0.9 6.10e+02    -  4.87e-02 2.21e-01h  1
 127r 2.7835500e+02 1.37e+00 6.58e+02  -0.9 1.46e+01  -0.4 4.42e-01 4.59e-02f  1
 128r 2.7835500e+02 1.28e+00 5.97e+02  -0.9 8.16e+00  -0.9 5.50e-02 6.90e-02f  1
 129r 2.7835262e+02 1.24e+00 9.15e+02  -0.9 6.52e+03    -  5.94e-02 2.70e-02f  1
iter    objective    inf_pr   inf_du lg(mu)  ||d||  lg(rg) alpha_du alpha_pr  ls
 130r 2.7835262e+02 1.16e+00 6.42e+02  -0.9 2.69e+01  -1.4 1.89e-03 6.54e-02f  1
 131r 2.7835263e+02 1.16e+00 6.33e+02  -0.9 4.94e+02    -  2.49e-01 4.42e-03f  1
 132r 2.7834991e+02 8.81e-01 4.72e+02  -0.9 3.10e+02    -  5.62e-01 2.38e-01h  1
 133r 2.7835121e+02 6.48e-01 1.96e+02  -0.9 2.54e+02    -  5.94e-01 5.84e-01h  1
 134r 2.7835123e+02 6.48e-01 1.96e+02  -0.9 6.11e+01    -  4.01e-02 5.00e-01h  2
 135r 2.7835123e+02 6.48e-01 2.25e+02  -0.9 5.47e+02  -0.9 6.27e-03 4.94e-04f  1
 136r 2.7835048e+02 6.48e-01 6.30e+02  -0.9 3.70e+02    -  5.05e-01 8.66e-02h  1
 137r 2.7835068e+02 6.48e-01 2.45e+02  -0.9 5.18e+01    -  5.13e-01 2.89e-01h  1
 138r 2.7834909e+02 6.48e-01 5.74e+00  -0.9 4.45e+01    -  1.00e+00 1.00e+00h  1
 139r 2.7834857e+02 6.48e-01 9.57e+01  -1.6 1.02e+02    -  6.67e-01 3.68e-01f  1
iter    objective    inf_pr   inf_du lg(mu)  ||d||  lg(rg) alpha_du alpha_pr  ls
 140r 2.7834319e+02 6.47e-01 6.43e+01  -1.6 4.79e+02    -  1.00e+00 8.47e-01f  1
 141r 2.7834277e+02 6.48e-01 6.42e-01  -1.6 5.76e+01    -  1.00e+00 1.00e+00f  1
 142r 2.7834228e+02 6.47e-01 3.87e+00  -2.5 4.96e+01    -  9.40e-01 9.91e-01f  1
 143r 2.7834165e+02 6.47e-01 3.25e+02  -2.5 9.09e+02    -  7.43e-01 5.48e-02f  1
 144r 2.7834140e+02 6.48e-01 2.90e+00  -2.5 7.83e+02    -  1.00e+00 1.00e+00f  1
 145r 2.7834167e+02 6.48e-01 5.48e-02  -2.5 6.48e+00    -  1.00e+00 1.00e+00h  1
 146r 2.7834178e+02 6.47e-01 1.04e+00  -3.7 1.71e+00    -  8.85e-01 1.00e+00f  1
 147r 2.7835493e+02 6.48e-01 7.84e+01  -3.7 3.08e+03    -  6.69e-01 3.12e-01f  1
 148r 2.7835493e+02 6.48e-01 3.44e+02  -3.7 2.12e+03    -  1.00e+00 5.96e-04f  1
 149r 2.7835527e+02 6.48e-01 3.02e+02  -3.7 1.73e+03    -  4.07e-01 1.70e-01f  1
iter    objective    inf_pr   inf_du lg(mu)  ||d||  lg(rg) alpha_du alpha_pr  ls
 150r 2.7835072e+02 6.48e-01 1.85e+02  -3.7 1.26e+03    -  1.00e+00 4.55e-01f  1
 151r 2.7835741e+02 6.48e-01 5.10e+00  -3.7 6.87e+02    -  7.37e-01 1.00e+00f  1
 152r 2.7835732e+02 6.48e-01 1.49e+00  -3.7 6.61e+01    -  1.00e+00 7.74e-01h  1
 153r 2.7835832e+02 6.48e-01 6.01e-02  -3.7 6.18e+01    -  1.00e+00 1.00e+00h  1
 154r 2.7835976e+02 6.48e-01 3.27e-02  -3.7 6.81e+01    -  1.00e+00 1.00e+00h  1
 155r 2.7836015e+02 6.48e-01 2.37e-03  -3.7 1.62e+01    -  1.00e+00 1.00e+00h  1
 156r 2.7836019e+02 6.48e-01 2.67e+00  -5.5 7.41e-01    -  8.43e-01 9.97e-01f  1
 157r 2.7836019e+02 6.48e-01 1.61e+01  -5.5 2.12e-01  -1.4 1.00e+00 7.28e-01f  1
 158r 2.7836018e+02 6.48e-01 8.10e-03  -5.5 6.31e-01  -1.9 1.00e+00 1.00e+00f  1
 159r 2.7836017e+02 6.48e-01 7.95e-03  -5.5 1.86e+00  -2.4 1.00e+00 1.00e+00f  1
iter    objective    inf_pr   inf_du lg(mu)  ||d||  lg(rg) alpha_du alpha_pr  ls
 160r 2.7836013e+02 6.48e-01 2.46e-02  -5.5 5.28e+00  -2.8 1.00e+00 1.00e+00f  1
 161r 2.7836003e+02 6.48e-01 8.44e-02  -5.5 1.37e+01  -3.3 1.00e+00 1.00e+00f  1
 162r 2.7835990e+02 6.48e-01 1.32e+01  -5.5 2.92e+01  -3.8 2.31e-01 4.71e-01f  1
 163r 2.7835955e+02 6.48e-01 7.57e+00  -5.5 4.34e+01  -4.3 4.27e-01 4.26e-01f  1
 164r 2.7835918e+02 6.48e-01 2.00e+02  -5.5 1.30e+02  -4.8 1.00e+00 2.43e-01f  1
 165r 2.7835550e+02 6.48e-01 5.37e+00  -5.5 3.92e+02  -5.2 9.93e-01 9.47e-01f  1
 166r 2.7835470e+02 6.48e-01 3.22e+01  -5.5 1.19e+03  -5.7 4.77e-01 7.33e-02f  1
 167r 2.7835470e+02 6.48e-01 2.30e-03  -5.5 1.08e-01  -1.7 1.00e+00 1.00e+00h  1
 168r 2.7835469e+02 6.48e-01 2.30e-03  -5.5 3.24e-01  -2.1 1.00e+00 1.00e+00f  1
 169r 2.7835468e+02 6.48e-01 2.30e-03  -5.5 9.71e-01  -2.6 1.00e+00 1.00e+00f  1
iter    objective    inf_pr   inf_du lg(mu)  ||d||  lg(rg) alpha_du alpha_pr  ls
 170r 2.7835463e+02 6.48e-01 2.30e-03  -5.5 2.91e+00  -3.1 1.00e+00 1.00e+00f  1
 171r 2.7835450e+02 6.48e-01 2.30e-03  -5.5 8.74e+00  -3.6 1.00e+00 1.00e+00f  1
 172r 2.7835411e+02 6.48e-01 2.30e-03  -5.5 2.62e+01  -4.1 1.00e+00 1.00e+00f  1
 173r 2.7835297e+02 6.48e-01 1.41e-02  -5.5 7.87e+01  -4.5 1.00e+00 1.00e+00f  1
 174r 2.7834981e+02 6.48e-01 1.29e-01  -5.5 2.37e+02  -5.0 1.00e+00 1.00e+00f  1
 175r 2.7834745e+02 6.48e-01 1.88e+01  -5.5 7.22e+02  -5.5 1.00e+00 3.24e-01f  1
 176r 2.7834722e+02 6.48e-01 8.57e+01  -5.5 2.41e+03  -6.0 1.00e+00 5.49e-02f  1
 177r 2.7835279e+02 2.45e+00 2.91e+01  -5.5 1.29e+03  -5.5 1.00e+00 1.00e+00f  1
 178r 2.7846684e+02 2.35e+00 2.89e+02  -5.5 4.11e+04    -  5.17e-01 4.13e-02f  1
 179r 2.7846684e+02 2.35e+00 1.50e+03  -5.5 5.95e+01   2.3 1.92e-06 2.02e-07h  2
iter    objective    inf_pr   inf_du lg(mu)  ||d||  lg(rg) alpha_du alpha_pr  ls
 180r 2.7846684e+02 2.29e+00 6.22e+02  -5.5 2.35e+00   1.8 1.16e-07 2.59e-02f  1
 181r 2.7846684e+02 2.21e+00 9.59e+02  -5.5 2.29e+00   1.4 2.30e-02 3.40e-02f  1
 182r 2.7846684e+02 2.21e+00 2.68e+03  -5.5 2.21e+00   1.8 2.21e-01 9.01e-04f  1
 183r 2.7846684e+02 2.21e+00 8.59e+02  -5.5 2.21e+00   1.3 6.96e-02 2.50e-04h  1
 184r 2.7846684e+02 2.21e+00 9.57e+02  -5.5 2.21e+00   1.7 4.80e-02 3.43e-06f  1
 185r 2.7846684e+02 2.17e+00 9.36e+02  -5.5 2.21e+00   1.2 1.57e-02 1.47e-02f  1
 186r 2.7846729e+02 2.17e+00 9.35e+02  -5.5 3.51e+04    -  1.81e-06 1.31e-04f  1
 187r 2.7846729e+02 2.15e+00 9.33e+02  -5.5 2.17e+00   1.7 4.92e-02 9.35e-03f  1
 188r 2.7846729e+02 2.04e+00 9.28e+02  -5.5 2.15e+00   1.2 1.00e+00 5.07e-02f  1
 189r 2.7846729e+02 1.66e+00 7.92e+02  -5.5 2.04e+00   0.7 6.59e-01 1.87e-01f  1
iter    objective    inf_pr   inf_du lg(mu)  ||d||  lg(rg) alpha_du alpha_pr  ls
 190r 2.7846729e+02 1.66e+00 9.07e+02  -5.5 1.66e+00   0.2 1.00e+00 1.74e-04h  1
 191r 2.7846729e+02 1.23e+00 6.71e+02  -5.5 1.66e+00  -0.2 9.14e-01 2.60e-01f  1
 192r 2.7846729e+02 1.23e+00 5.56e+02  -5.5 1.69e+00  -0.7 1.00e+00 4.56e-05h  1
 193r 2.7846729e+02 1.02e+00 4.59e+02  -5.5 1.23e+00  -0.3 2.01e-01 1.73e-01h  1
 194r 2.7846729e+02 9.76e-01 1.11e+03  -5.5 1.02e+00  -0.8 1.00e+00 3.89e-02h  1
 195r 2.7846729e+02 6.48e-01 1.67e+01  -5.5 9.76e-01  -0.3 9.00e-01 1.00e+00h  1
 196r 2.7846729e+02 6.48e-01 2.06e-02  -5.5 1.34e-01  -0.8 1.00e+00 1.00e+00h  1
 197r 2.7847267e+02 6.48e-01 3.38e+02  -5.5 4.94e+04    -  1.73e-01 1.66e-03f  1
 198r 2.7847267e+02 6.48e-01 1.38e+03  -5.5 3.37e-01  -1.3 1.00e+00 1.82e-01f  1
 199r 2.7867920e+02 6.48e-01 1.24e+03  -5.5 5.01e+04    -  1.53e-01 6.23e-02f  1
iter    objective    inf_pr   inf_du lg(mu)  ||d||  lg(rg) alpha_du alpha_pr  ls
 200r 2.7867920e+02 6.48e-01 8.55e+02  -5.5 2.28e+00  -1.8 4.91e-02 7.76e-04h  1
 201r 2.7867920e+02 6.48e-01 3.24e+02  -5.5 1.16e-01   3.2 2.36e-03 1.32e-03f  1
 202r 2.7867920e+02 6.48e-01 7.44e+02  -5.5 1.16e-01   3.6 4.70e-03 2.40e-03h  1
 203r 2.7867920e+02 6.48e-01 1.58e+03  -5.5 3.88e-02   3.1 1.05e-03 5.71e-02h  1
 204r 2.7867920e+02 6.48e-01 3.79e+03  -5.5 2.99e-02   3.5 6.81e-03 4.16e-02h  1
 205r 2.7867920e+02 6.48e-01 3.64e+03  -5.5 4.73e-02   3.1 1.52e-02 4.00e-02f  1
 206r 2.7867920e+02 6.48e-01 3.51e+03  -5.5 1.67e-02   3.5 8.31e-03 3.56e-02h  1
 207r 2.7867920e+02 6.48e-01 3.45e+03  -5.5 4.40e-02   3.0 2.91e-02 1.67e-02h  1
 208r 2.7867920e+02 6.48e-01 3.44e+03  -5.5 1.97e-02   3.4 2.14e-02 3.20e-03h  1
 209r 2.7867920e+02 6.48e-01 2.12e+03  -5.5 5.06e-02   3.0 5.30e-02 3.85e-01f  1
iter    objective    inf_pr   inf_du lg(mu)  ||d||  lg(rg) alpha_du alpha_pr  ls
 210r 2.7867920e+02 6.48e-01 6.75e+02  -5.5 9.83e-02   2.5 2.60e-01 1.00e+00f  1
 211r 2.7867920e+02 6.48e-01 1.08e+03  -5.5 2.59e-01   2.0 1.00e+00 3.47e-01f  1
 212r 2.7867920e+02 6.48e-01 1.06e+03  -5.5 7.93e-01   1.5 8.16e-02 6.17e-02f  1
 213r 2.7867920e+02 6.48e-01 9.98e+02  -5.5 2.54e+00   1.1 9.36e-02 2.22e-02f  1
 214r 2.7867920e+02 6.48e-01 9.03e+02  -5.5 9.49e+00   0.6 2.84e-02 5.46e-02f  1
 215r 2.7867920e+02 6.48e-01 1.58e+03  -5.5 2.81e+00   0.1 8.11e-01 5.48e-07f  1
 216r 2.7867920e+02 6.48e-01 1.56e+03  -5.5 5.68e+00  -0.4 1.00e+00 9.20e-03f  1
 217r 2.7867920e+02 6.48e-01 1.46e+03  -5.5 1.61e-01  -0.8 3.31e-02 6.54e-02h  1
 218r 2.7867920e+02 6.48e-01 1.45e+03  -5.5 4.18e-01  -1.3 1.00e+00 5.13e-03h  1
 219r 2.7867918e+02 6.48e-01 2.66e+02  -5.5 1.25e+00  -1.8 1.00e+00 8.17e-01f  1
iter    objective    inf_pr   inf_du lg(mu)  ||d||  lg(rg) alpha_du alpha_pr  ls
 220r 2.7867916e+02 6.48e-01 1.94e+02  -5.5 3.76e+00  -2.3 1.00e+00 2.71e-01f  1
 221r 2.7867915e+02 6.48e-01 1.89e+02  -5.5 1.07e+01  -2.8 1.00e+00 2.36e-02f  1
 222r 2.7867911e+02 6.48e-01 1.51e+03  -5.5 2.77e+01  -3.2 9.20e-01 5.67e-02f  1
 223r 2.7867691e+02 6.48e-01 2.46e+00  -5.5 8.26e+01  -3.7 1.00e+00 1.00e+00f  1
 224r 2.7867194e+02 6.48e-01 5.52e+01  -5.5 2.41e+02  -4.2 8.26e-01 7.40e-01f  1
 225r 2.7867190e+02 6.48e-01 1.58e-02  -5.5 1.42e+00  -2.0 1.00e+00 1.00e+00h  1
 226r 2.7867183e+02 6.48e-01 2.21e+00  -5.5 4.27e+00  -2.4 4.26e-01 5.99e-01f  1
 227r 2.7867183e+02 6.48e-01 1.72e+01  -5.5 1.84e-02   0.7 1.00e+00 6.21e-01f  1
 228r 2.7867183e+02 6.48e-01 1.11e+01  -5.5 1.41e-02   0.2 4.49e-01 5.35e-01f  1
 229r 2.7867183e+02 6.48e-01 1.54e+01  -5.5 1.46e-01  -0.3 1.00e+00 2.00e-02f  1
iter    objective    inf_pr   inf_du lg(mu)  ||d||  lg(rg) alpha_du alpha_pr  ls
 230r 2.7867183e+02 6.48e-01 1.58e-02  -5.5 8.45e-02  -0.7 1.00e+00 1.00e+00f  1
 231r 2.7867182e+02 6.48e-01 1.58e-02  -5.5 2.53e-01  -1.2 1.00e+00 9.90e-01f  1
 232r 2.7867180e+02 6.48e-01 1.58e-02  -5.5 7.60e-01  -1.7 1.00e+00 1.00e+00f  1
 233r 2.7867174e+02 6.48e-01 1.58e-02  -5.5 2.28e+00  -2.2 1.00e+00 1.00e+00f  1
 234r 2.7867155e+02 6.48e-01 1.58e-02  -5.5 6.84e+00  -2.6 1.00e+00 1.00e+00f  1
 235r 2.7867099e+02 6.48e-01 1.58e-02  -5.5 2.05e+01  -3.1 1.00e+00 1.00e+00f  1
 236r 2.7866930e+02 6.48e-01 1.57e-02  -5.5 6.10e+01  -3.6 1.00e+00 1.00e+00f  1
 237r 2.7866634e+02 6.48e-01 1.32e+00  -5.5 1.79e+02  -4.1 1.00e+00 5.99e-01f  1
 238r 2.7866634e+02 6.48e-01 8.60e+02  -5.5 1.43e+02  -4.5 1.00e+00 1.59e-05h  1
 239r 2.7866497e+02 6.48e-01 7.41e+02  -5.5 4.91e+02  -5.0 3.55e-02 1.38e-01f  1
iter    objective    inf_pr   inf_du lg(mu)  ||d||  lg(rg) alpha_du alpha_pr  ls
 240r 2.7866496e+02 6.48e-01 7.93e+02  -5.5 7.16e+02  -5.5 3.14e-01 1.14e-03f  1
 241r 2.7865956e+02 6.48e-01 6.17e+02  -5.5 2.17e+03  -6.0 1.00e+00 3.19e-01f  1
 242r 2.7866050e+02 6.48e-01 5.52e+02  -5.5 6.74e+03  -6.5 1.00e+00 1.01e-01f  1
 243r 2.7866070e+02 6.48e-01 9.13e+02  -5.5 1.26e+05    -  1.00e+00 7.50e-05f  1
 244r 2.7924746e+02 2.26e+01 7.17e+02  -5.5 1.26e+05    -  1.00e+00 2.15e-01f  1
 245r 2.7907700e+02 2.24e+01 2.33e+03  -5.5 3.10e+05  -6.9 4.84e-04 8.38e-03f  1
 246r 2.7907700e+02 2.24e+01 2.56e+03  -5.5 2.24e+01   4.9 2.87e-04 7.61e-07h  1
 247r 2.7907615e+02 2.24e+01 1.33e+03  -5.5 2.14e+06    -  4.30e-07 5.90e-06f  1
 248r 2.7907615e+02 2.24e+01 1.73e+03  -5.5 2.24e+01   4.4 2.76e-08 7.36e-10h  1
 249r 2.7907615e+02 2.24e+01 1.86e+03  -5.5 2.24e+01   4.0 9.84e-09 1.06e-03f  1
iter    objective    inf_pr   inf_du lg(mu)  ||d||  lg(rg) alpha_du alpha_pr  ls
 250r 2.7907615e+02 2.24e+01 1.86e+03  -5.5 1.49e+01   3.5 0.00e+00 7.65e-08R  2
 251r 2.7907615e+02 2.24e+01 1.86e+03  -5.5 8.36e-01   3.0 5.93e-03 2.24e-06f  5
 252r 2.7907615e+02 2.24e+01 1.86e+03  -5.5 3.98e+00   2.5 4.51e-03 2.01e-07f 19
 253r 2.7907615e+02 2.24e+01 1.86e+03  -5.5 1.10e+00   3.0 1.15e-03 8.60e-10f  9
 254r 2.7907615e+02 2.24e+01 1.86e+03  -5.5 5.01e+00   2.5 6.41e-05 9.74e-12f 33
 255r 2.7907615e+02 2.24e+01 1.86e+03  -5.5 1.24e+00   2.9 5.45e-03 3.06e-09f  7
 256r 2.7907615e+02 2.23e+01 3.72e+03  -5.5 6.55e+00   2.4 6.08e-05 3.21e-02f  1
 257r 2.7907615e+02 2.23e+01 1.06e+03  -5.5 6.14e-02   4.7 1.16e-02 6.15e-04f  1
 258r 2.7907615e+02 2.23e+01 1.09e+03  -5.5 3.90e-02   5.1 1.51e-03 8.11e-05f  1
 259r 2.7907615e+02 2.23e+01 1.52e+03  -5.5 7.79e-02   4.6 4.95e-04 3.30e-03f  1
iter    objective    inf_pr   inf_du lg(mu)  ||d||  lg(rg) alpha_du alpha_pr  ls
 260r 2.7907615e+02 2.23e+01 1.24e+03  -5.5 2.06e-01   4.1 4.91e-03 1.36e-03h  1
 261r 2.7907615e+02 2.23e+01 7.49e+02  -5.5 5.84e-02   4.6 1.76e-02 7.33e-02f  1
 262r 2.7907615e+02 2.23e+01 7.18e+02  -5.5 1.44e-01   4.1 7.79e-02 4.61e-02f  1
 263r 2.7907615e+02 2.23e+01 2.30e+03  -5.5 7.91e-02   3.6 1.20e-02 1.25e-01f  1
 264r 2.7907615e+02 2.22e+01 4.85e+03  -5.5 2.77e-01   3.1 4.21e-02 3.79e-01f  1
 265r 2.7907615e+02 2.21e+01 6.03e+03  -5.5 7.09e-01   2.6 1.28e-02 9.61e-02f  1
 266r 2.7907615e+02 2.21e+01 6.02e+03  -5.5 2.47e+00   2.2 2.00e-06 1.80e-03f  1
 267r 2.7907615e+02 2.21e+01 5.96e+03  -5.5 6.89e+00   1.7 6.49e-02 9.91e-03f  1
 268r 2.7907615e+02 2.16e+01 5.84e+03  -5.5 2.07e+01   1.2 8.85e-03 2.08e-02f  1
 269r 2.7907615e+02 2.16e+01 5.35e+03  -5.5 8.25e-02   4.4 3.89e-03 8.86e-02f  1
iter    objective    inf_pr   inf_du lg(mu)  ||d||  lg(rg) alpha_du alpha_pr  ls
 270r 2.7907615e+02 2.16e+01 4.94e+03  -5.5 1.44e-01   3.9 1.10e-01 7.80e-02f  1
 271r 2.7907615e+02 2.16e+01 4.05e+03  -5.5 6.99e-02   4.3 6.83e-02 1.89e-01f  1
 272r 2.7907615e+02 2.16e+01 3.57e+03  -5.5 1.60e-01   3.8 1.42e-01 1.23e-01f  1
 273r 2.7907615e+02 2.15e+01 1.12e+03  -5.5 4.10e-01   3.3 1.73e-01 7.09e-01f  1
 274r 2.7907615e+02 2.13e+01 7.30e+02  -5.5 1.04e+00   2.9 2.17e-01 5.27e-01f  1
 275r 2.7907615e+02 2.10e+01 7.07e+02  -5.5 2.27e+00   2.4 4.77e-01 1.74e-01f  1
 276r 2.7907615e+02 2.09e+01 6.76e+02  -5.5 4.16e+00   1.9 3.57e-01 3.92e-02f  1
 277r 2.7907615e+02 2.05e+01 1.18e+03  -5.5 1.26e+01   1.4 1.00e+00 3.38e-02f  1
 278r 2.7907615e+02 1.94e+01 1.86e+03  -5.5 3.75e+01   1.0 5.59e-01 2.84e-02f  1
 279r 2.7907615e+02 1.94e+01 1.85e+03  -5.5 1.75e+00   2.3 5.58e-03 4.09e-03f  1
iter    objective    inf_pr   inf_du lg(mu)  ||d||  lg(rg) alpha_du alpha_pr  ls
 280r 2.7907615e+02 1.94e+01 6.55e+02  -5.5 2.18e-01   3.6 5.88e-01 1.10e-01f  1
 281r 2.7907615e+02 1.92e+01 7.16e+02  -5.5 5.86e-01   3.1 4.40e-01 6.19e-01f  1
 282r 2.7907615e+02 1.87e+01 6.73e+02  -5.5 1.44e+00   2.7 1.80e-02 6.64e-01f  1
 283r 2.7907615e+02 1.86e+01 7.05e+02  -5.5 5.87e-01   3.1 7.15e-01 6.18e-01f  1
 284r 2.7907615e+02 1.85e+01 7.66e+02  -5.5 2.48e-01   3.5 6.49e-01 5.43e-01f  1
 285r 2.7907615e+02 1.84e+01 6.01e+02  -5.5 3.21e-01   3.0 5.36e-01 3.86e-01f  1
 286r 2.7907615e+02 1.84e+01 4.26e+12  -5.5 4.08e-01   3.5 1.00e+00 3.43e-01f  1
 287r 2.7907615e+02 1.84e+01 1.30e+15  -5.5 1.01e+00  11.5 5.92e-09 1.65e-07h  1
WARNING: Problem in step computation; switching to emergency mode.
 288r 2.7907615e+02 1.84e+01 1.30e+15  -5.5 1.01e+00  18.7 0.00e+00 0.00e+00R  1
WARNING: Problem in step computation; switching to emergency mode.
Restoration phase is called at point that is almost feasible,
  with constraint violation 0.000000e+00. Abort.
Restoration phase in the restoration phase failed.

Number of Iterations....: 288

                                   (scaled)                 (unscaled)
Objective...............:   2.7907615155901550e+02    2.7907615155901550e+02
Dual infeasibility......:   1.2964746383816950e+15    1.2964746383816950e+15
Constraint violation....:   1.8353842181569888e+01    1.8353842181569888e+01
Complementarity.........:   3.0609438708460092e-06    3.0609438708460092e-06
Overall NLP error.......:   5.1196978370518325e+14    1.2964746383816950e+15


Number of objective function evaluations             = 607
Number of objective gradient evaluations             = 62
Number of equality constraint evaluations            = 608
Number of inequality constraint evaluations          = 0
Number of equality constraint Jacobian evaluations   = 294
Number of inequality constraint Jacobian evaluations = 0
Number of Lagrangian Hessian evaluations             = 289
Total CPU secs in IPOPT (w/o function evaluations)   =      0.582
Total CPU secs in NLP function evaluations           =      7.572

EXIT: Restoration Failed!
